
Gurobi 9.1.2 (win64, Java) logging started Sat Nov 13 11:08:42 2021

Academic license - for non-commercial use only - expires 2022-10-30
Gurobi Optimizer version 9.1.2 build v9.1.2rc0 (win64)
Thread count: 6 physical cores, 12 logical processors, using up to 12 threads
Optimize a model with 60 rows, 800 columns and 1600 nonzeros
Model fingerprint: 0x5358c582
Variable types: 0 continuous, 800 integer (800 binary)
Coefficient statistics:
  Matrix range     [1e+00, 1e+03]
  Objective range  [4e+01, 9e+02]
  Bounds range     [1e+00, 1e+00]
  RHS range        [1e+00, 7e+02]
Found heuristic solution: objective 8450.0000000
Presolve removed 12 rows and 392 columns
Presolve time: 0.00s
Presolved: 48 rows, 408 columns, 816 nonzeros
Variable types: 0 continuous, 408 integer (408 binary)
Presolved: 48 rows, 408 columns, 816 nonzeros


Root relaxation: objective 1.004100e+04, 75 iterations, 0.00 seconds

    Nodes    |    Current Node    |     Objective Bounds      |     Work
 Expl Unexpl |  Obj  Depth IntInf | Incumbent    BestBd   Gap | It/Node Time

     0     0 10041.0000    0    9 8450.00000 10041.0000  18.8%     -    0s
H    0     0                    9713.0000000 10041.0000  3.38%     -    0s
H    0     0                    9821.0000000 10041.0000  2.24%     -    0s
     0     0 10041.0000    0   12 9821.00000 10041.0000  2.24%     -    0s
     0     0 10041.0000    0   10 9821.00000 10041.0000  2.24%     -    0s
     0     2 10041.0000    0   10 9821.00000 10041.0000  2.24%     -    0s
H   20    26                    10041.000000 10041.0000  0.00%  23.1    0s

Cutting planes:
  Gomory: 4
  Cover: 18
  Clique: 2
  MIR: 9
  StrongCG: 7

Explored 25 nodes (1049 simplex iterations) in 0.04 seconds
Thread count was 12 (of 12 available processors)

Solution count 4: 10041 9821 9713 8450 

Optimal solution found (tolerance 1.00e-12)
Best objective 1.004100000000e+04, best bound 1.004100000000e+04, gap 0.0000%
